p cnf 308 2176
1 -121 0
1 -122 0
121 -121 0
122 -122 0
16 -129 0
16 -130 0
129 -129 0
130 -130 0
31 -137 0
31 -138 0
137 -137 0
138 -138 0
46 -145 0
46 -146 0
145 -145 0
146 -146 0
61 -153 0
61 -154 0
153 -153 0
154 -154 0
76 -161 0
76 -162 0
161 -161 0
162 -162 0
91 -169 0
91 -170 0
169 -169 0
170 -170 0
106 -177 0
106 -178 0
177 -177 0
178 -178 0
-2 -121 0
-2 -122 0
121 -121 0
122 -122 0
-17 -129 0
-17 -130 0
129 -129 0
130 -130 0
-32 -137 0
-32 -138 0
137 -137 0
138 -138 0
-47 -145 0
-47 -146 0
145 -145 0
146 -146 0
-62 -153 0
-62 -154 0
153 -153 0
154 -154 0
-77 -161 0
-77 -162 0
161 -161 0
162 -162 0
-92 -169 0
-92 -170 0
169 -169 0
170 -170 0
-107 -177 0
-107 -178 0
177 -177 0
178 -178 0
3 -121 0
3 -122 0
121 -121 0
122 -122 0
18 -129 0
18 -130 0
129 -129 0
130 -130 0
33 -137 0
33 -138 0
137 -137 0
138 -138 0
48 -145 0
48 -146 0
145 -145 0
146 -146 0
63 -153 0
63 -154 0
153 -153 0
154 -154 0
78 -161 0
78 -162 0
161 -161 0
162 -162 0
93 -169 0
93 -170 0
169 -169 0
170 -170 0
108 -177 0
108 -178 0
177 -177 0
178 -178 0
-4 -121 0
-4 -122 0
121 -121 0
122 -122 0
-19 -129 0
-19 -130 0
129 -129 0
130 -130 0
-34 -137 0
-34 -138 0
137 -137 0
138 -138 0
-49 -145 0
-49 -146 0
145 -145 0
146 -146 0
-64 -153 0
-64 -154 0
153 -153 0
154 -154 0
-79 -161 0
-79 -162 0
161 -161 0
162 -162 0
-94 -169 0
-94 -170 0
169 -169 0
170 -170 0
-109 -177 0
-109 -178 0
177 -177 0
178 -178 0
-5 -121 0
-5 -122 0
121 -121 0
122 -122 0
-20 -129 0
-20 -130 0
129 -129 0
130 -130 0
-35 -137 0
-35 -138 0
137 -137 0
138 -138 0
-50 -145 0
-50 -146 0
145 -145 0
146 -146 0
-65 -153 0
-65 -154 0
153 -153 0
154 -154 0
-80 -161 0
-80 -162 0
161 -161 0
162 -162 0
-95 -169 0
-95 -170 0
169 -169 0
170 -170 0
-110 -177 0
-110 -178 0
177 -177 0
178 -178 0
6 -185 -121 0
-6 185 -121 0
6 185 -122 0
-6 -185 -122 0
21 -185 -129 0
-21 185 -129 0
21 185 -130 0
-21 -185 -130 0
36 -185 -137 0
-36 185 -137 0
36 185 -138 0
-36 -185 -138 0
51 -185 -145 0
-51 185 -145 0
51 185 -146 0
-51 -185 -146 0
66 -185 -153 0
-66 185 -153 0
66 185 -154 0
-66 -185 -154 0
81 -185 -161 0
-81 185 -161 0
81 185 -162 0
-81 -185 -162 0
96 -185 -169 0
-96 185 -169 0
96 185 -170 0
-96 -185 -170 0
111 -185 -177 0
-111 185 -177 0
111 185 -178 0
-111 -185 -178 0
7 -121 0
7 -122 0
121 -121 0
122 -122 0
22 -129 0
22 -130 0
129 -129 0
130 -130 0
37 -137 0
37 -138 0
137 -137 0
138 -138 0
52 -145 0
52 -146 0
145 -145 0
146 -146 0
67 -153 0
67 -154 0
153 -153 0
154 -154 0
82 -161 0
82 -162 0
161 -161 0
162 -162 0
97 -169 0
97 -170 0
169 -169 0
170 -170 0
112 -177 0
112 -178 0
177 -177 0
178 -178 0
8 -121 0
8 -122 0
121 -121 0
122 -122 0
23 -129 0
23 -130 0
129 -129 0
130 -130 0
38 -137 0
38 -138 0
137 -137 0
138 -138 0
53 -145 0
53 -146 0
145 -145 0
146 -146 0
68 -153 0
68 -154 0
153 -153 0
154 -154 0
83 -161 0
83 -162 0
161 -161 0
162 -162 0
98 -169 0
98 -170 0
169 -169 0
170 -170 0
113 -177 0
113 -178 0
177 -177 0
178 -178 0
9 -121 0
9 -122 0
121 -121 0
122 -122 0
24 -129 0
24 -130 0
129 -129 0
130 -130 0
39 -137 0
39 -138 0
137 -137 0
138 -138 0
54 -145 0
54 -146 0
145 -145 0
146 -146 0
69 -153 0
69 -154 0
153 -153 0
154 -154 0
84 -161 0
84 -162 0
161 -161 0
162 -162 0
99 -169 0
99 -170 0
169 -169 0
170 -170 0
114 -177 0
114 -178 0
177 -177 0
178 -178 0
10 -186 -121 0
-10 186 -121 0
10 186 -122 0
-10 -186 -122 0
25 -186 -129 0
-25 186 -129 0
25 186 -130 0
-25 -186 -130 0
40 -186 -137 0
-40 186 -137 0
40 186 -138 0
-40 -186 -138 0
55 -186 -145 0
-55 186 -145 0
55 186 -146 0
-55 -186 -146 0
70 -186 -153 0
-70 186 -153 0
70 186 -154 0
-70 -186 -154 0
85 -186 -161 0
-85 186 -161 0
85 186 -162 0
-85 -186 -162 0
100 -186 -169 0
-100 186 -169 0
100 186 -170 0
-100 -186 -170 0
115 -186 -177 0
-115 186 -177 0
115 186 -178 0
-115 -186 -178 0
11 -121 0
11 -122 0
121 -121 0
122 -122 0
26 -129 0
26 -130 0
129 -129 0
130 -130 0
41 -137 0
41 -138 0
137 -137 0
138 -138 0
56 -145 0
56 -146 0
145 -145 0
146 -146 0
71 -153 0
71 -154 0
153 -153 0
154 -154 0
86 -161 0
86 -162 0
161 -161 0
162 -162 0
101 -169 0
101 -170 0
169 -169 0
170 -170 0
116 -177 0
116 -178 0
177 -177 0
178 -178 0
12 -121 0
12 -122 0
121 -121 0
122 -122 0
27 -129 0
27 -130 0
129 -129 0
130 -130 0
42 -137 0
42 -138 0
137 -137 0
138 -138 0
57 -145 0
57 -146 0
145 -145 0
146 -146 0
72 -153 0
72 -154 0
153 -153 0
154 -154 0
87 -161 0
87 -162 0
161 -161 0
162 -162 0
102 -169 0
102 -170 0
169 -169 0
170 -170 0
117 -177 0
117 -178 0
177 -177 0
178 -178 0
13 -121 0
13 -122 0
121 -121 0
122 -122 0
28 -129 0
28 -130 0
129 -129 0
130 -130 0
43 -137 0
43 -138 0
137 -137 0
138 -138 0
58 -145 0
58 -146 0
145 -145 0
146 -146 0
73 -153 0
73 -154 0
153 -153 0
154 -154 0
88 -161 0
88 -162 0
161 -161 0
162 -162 0
103 -169 0
103 -170 0
169 -169 0
170 -170 0
118 -177 0
118 -178 0
177 -177 0
178 -178 0
14 -121 0
14 -122 0
121 -121 0
122 -122 0
29 -129 0
29 -130 0
129 -129 0
130 -130 0
44 -137 0
44 -138 0
137 -137 0
138 -138 0
59 -145 0
59 -146 0
145 -145 0
146 -146 0
74 -153 0
74 -154 0
153 -153 0
154 -154 0
89 -161 0
89 -162 0
161 -161 0
162 -162 0
104 -169 0
104 -170 0
169 -169 0
170 -170 0
119 -177 0
119 -178 0
177 -177 0
178 -178 0
15 -121 0
15 -122 0
121 -121 0
122 -122 0
30 -129 0
30 -130 0
129 -129 0
130 -130 0
45 -137 0
45 -138 0
137 -137 0
138 -138 0
60 -145 0
60 -146 0
145 -145 0
146 -146 0
75 -153 0
75 -154 0
153 -153 0
154 -154 0
90 -161 0
90 -162 0
161 -161 0
162 -162 0
105 -169 0
105 -170 0
169 -169 0
170 -170 0
120 -177 0
120 -178 0
177 -177 0
178 -178 0
-245 121 0
245 -121 0
-246 122 0
245 -122 0
-245 -121 0
-246 -122 0
-253 121 245 0
253 -121 0
253 -245 0
-254 122 246 0
254 -122 0
254 -246 0
-253 -129 0
-254 -130 0
-261 129 253 0
261 -129 0
261 -253 0
-262 130 254 0
262 -130 0
262 -254 0
-261 -137 0
-262 -138 0
-269 137 261 0
269 -137 0
269 -261 0
-270 138 262 0
270 -138 0
270 -262 0
-269 -145 0
-270 -146 0
-277 145 269 0
277 -145 0
277 -269 0
-278 146 270 0
278 -146 0
278 -270 0
-277 -153 0
-278 -154 0
-285 153 277 0
285 -153 0
285 -277 0
-286 154 278 0
286 -154 0
286 -278 0
-285 -161 0
-286 -162 0
-293 161 285 0
293 -161 0
293 -285 0
-294 162 286 0
294 -162 0
294 -286 0
-293 -169 0
-294 -170 0
-301 169 293 0
301 -169 0
301 -293 0
-302 170 294 0
302 -170 0
302 -294 0
-301 -177 0
-302 -178 0
301 0
302 0
1 -123 0
1 -124 0
123 -123 0
124 -124 0
16 -131 0
16 -132 0
131 -131 0
132 -132 0
31 -139 0
31 -140 0
139 -139 0
140 -140 0
46 -147 0
46 -148 0
147 -147 0
148 -148 0
61 -155 0
61 -156 0
155 -155 0
156 -156 0
76 -163 0
76 -164 0
163 -163 0
164 -164 0
91 -171 0
91 -172 0
171 -171 0
172 -172 0
106 -179 0
106 -180 0
179 -179 0
180 -180 0
-2 -123 0
-2 -124 0
123 -123 0
124 -124 0
-17 -131 0
-17 -132 0
131 -131 0
132 -132 0
-32 -139 0
-32 -140 0
139 -139 0
140 -140 0
-47 -147 0
-47 -148 0
147 -147 0
148 -148 0
-62 -155 0
-62 -156 0
155 -155 0
156 -156 0
-77 -163 0
-77 -164 0
163 -163 0
164 -164 0
-92 -171 0
-92 -172 0
171 -171 0
172 -172 0
-107 -179 0
-107 -180 0
179 -179 0
180 -180 0
3 -123 0
3 -124 0
123 -123 0
124 -124 0
18 -131 0
18 -132 0
131 -131 0
132 -132 0
33 -139 0
33 -140 0
139 -139 0
140 -140 0
48 -147 0
48 -148 0
147 -147 0
148 -148 0
63 -155 0
63 -156 0
155 -155 0
156 -156 0
78 -163 0
78 -164 0
163 -163 0
164 -164 0
93 -171 0
93 -172 0
171 -171 0
172 -172 0
108 -179 0
108 -180 0
179 -179 0
180 -180 0
-4 -123 0
-4 -124 0
123 -123 0
124 -124 0
-19 -131 0
-19 -132 0
131 -131 0
132 -132 0
-34 -139 0
-34 -140 0
139 -139 0
140 -140 0
-49 -147 0
-49 -148 0
147 -147 0
148 -148 0
-64 -155 0
-64 -156 0
155 -155 0
156 -156 0
-79 -163 0
-79 -164 0
163 -163 0
164 -164 0
-94 -171 0
-94 -172 0
171 -171 0
172 -172 0
-109 -179 0
-109 -180 0
179 -179 0
180 -180 0
-5 -123 0
-5 -124 0
123 -123 0
124 -124 0
-20 -131 0
-20 -132 0
131 -131 0
132 -132 0
-35 -139 0
-35 -140 0
139 -139 0
140 -140 0
-50 -147 0
-50 -148 0
147 -147 0
148 -148 0
-65 -155 0
-65 -156 0
155 -155 0
156 -156 0
-80 -163 0
-80 -164 0
163 -163 0
164 -164 0
-95 -171 0
-95 -172 0
171 -171 0
172 -172 0
-110 -179 0
-110 -180 0
179 -179 0
180 -180 0
-6 -123 0
-6 -124 0
123 -123 0
124 -124 0
-21 -131 0
-21 -132 0
131 -131 0
132 -132 0
-36 -139 0
-36 -140 0
139 -139 0
140 -140 0
-51 -147 0
-51 -148 0
147 -147 0
148 -148 0
-66 -155 0
-66 -156 0
155 -155 0
156 -156 0
-81 -163 0
-81 -164 0
163 -163 0
164 -164 0
-96 -171 0
-96 -172 0
171 -171 0
172 -172 0
-111 -179 0
-111 -180 0
179 -179 0
180 -180 0
7 -187 -123 0
-7 187 -123 0
7 187 -124 0
-7 -187 -124 0
22 -187 -131 0
-22 187 -131 0
22 187 -132 0
-22 -187 -132 0
37 -187 -139 0
-37 187 -139 0
37 187 -140 0
-37 -187 -140 0
52 -187 -147 0
-52 187 -147 0
52 187 -148 0
-52 -187 -148 0
67 -187 -155 0
-67 187 -155 0
67 187 -156 0
-67 -187 -156 0
82 -187 -163 0
-82 187 -163 0
82 187 -164 0
-82 -187 -164 0
97 -187 -171 0
-97 187 -171 0
97 187 -172 0
-97 -187 -172 0
112 -187 -179 0
-112 187 -179 0
112 187 -180 0
-112 -187 -180 0
8 -188 -123 0
-8 188 -123 0
8 188 -124 0
-8 -188 -124 0
23 -188 -131 0
-23 188 -131 0
23 188 -132 0
-23 -188 -132 0
38 -188 -139 0
-38 188 -139 0
38 188 -140 0
-38 -188 -140 0
53 -188 -147 0
-53 188 -147 0
53 188 -148 0
-53 -188 -148 0
68 -188 -155 0
-68 188 -155 0
68 188 -156 0
-68 -188 -156 0
83 -188 -163 0
-83 188 -163 0
83 188 -164 0
-83 -188 -164 0
98 -188 -171 0
-98 188 -171 0
98 188 -172 0
-98 -188 -172 0
113 -188 -179 0
-113 188 -179 0
113 188 -180 0
-113 -188 -180 0
9 -189 -123 0
-9 189 -123 0
9 189 -124 0
-9 -189 -124 0
24 -189 -131 0
-24 189 -131 0
24 189 -132 0
-24 -189 -132 0
39 -189 -139 0
-39 189 -139 0
39 189 -140 0
-39 -189 -140 0
54 -189 -147 0
-54 189 -147 0
54 189 -148 0
-54 -189 -148 0
69 -189 -155 0
-69 189 -155 0
69 189 -156 0
-69 -189 -156 0
84 -189 -163 0
-84 189 -163 0
84 189 -164 0
-84 -189 -164 0
99 -189 -171 0
-99 189 -171 0
99 189 -172 0
-99 -189 -172 0
114 -189 -179 0
-114 189 -179 0
114 189 -180 0
-114 -189 -180 0
-10 -123 0
-10 -124 0
123 -123 0
124 -124 0
-25 -131 0
-25 -132 0
131 -131 0
132 -132 0
-40 -139 0
-40 -140 0
139 -139 0
140 -140 0
-55 -147 0
-55 -148 0
147 -147 0
148 -148 0
-70 -155 0
-70 -156 0
155 -155 0
156 -156 0
-85 -163 0
-85 -164 0
163 -163 0
164 -164 0
-100 -171 0
-100 -172 0
171 -171 0
172 -172 0
-115 -179 0
-115 -180 0
179 -179 0
180 -180 0
11 -123 0
11 -124 0
123 -123 0
124 -124 0
26 -131 0
26 -132 0
131 -131 0
132 -132 0
41 -139 0
41 -140 0
139 -139 0
140 -140 0
56 -147 0
56 -148 0
147 -147 0
148 -148 0
71 -155 0
71 -156 0
155 -155 0
156 -156 0
86 -163 0
86 -164 0
163 -163 0
164 -164 0
101 -171 0
101 -172 0
171 -171 0
172 -172 0
116 -179 0
116 -180 0
179 -179 0
180 -180 0
12 -123 0
12 -124 0
123 -123 0
124 -124 0
27 -131 0
27 -132 0
131 -131 0
132 -132 0
42 -139 0
42 -140 0
139 -139 0
140 -140 0
57 -147 0
57 -148 0
147 -147 0
148 -148 0
72 -155 0
72 -156 0
155 -155 0
156 -156 0
87 -163 0
87 -164 0
163 -163 0
164 -164 0
102 -171 0
102 -172 0
171 -171 0
172 -172 0
117 -179 0
117 -180 0
179 -179 0
180 -180 0
-13 -123 0
-13 -124 0
123 -123 0
124 -124 0
-28 -131 0
-28 -132 0
131 -131 0
132 -132 0
-43 -139 0
-43 -140 0
139 -139 0
140 -140 0
-58 -147 0
-58 -148 0
147 -147 0
148 -148 0
-73 -155 0
-73 -156 0
155 -155 0
156 -156 0
-88 -163 0
-88 -164 0
163 -163 0
164 -164 0
-103 -171 0
-103 -172 0
171 -171 0
172 -172 0
-118 -179 0
-118 -180 0
179 -179 0
180 -180 0
14 -123 0
14 -124 0
123 -123 0
124 -124 0
29 -131 0
29 -132 0
131 -131 0
132 -132 0
44 -139 0
44 -140 0
139 -139 0
140 -140 0
59 -147 0
59 -148 0
147 -147 0
148 -148 0
74 -155 0
74 -156 0
155 -155 0
156 -156 0
89 -163 0
89 -164 0
163 -163 0
164 -164 0
104 -171 0
104 -172 0
171 -171 0
172 -172 0
119 -179 0
119 -180 0
179 -179 0
180 -180 0
15 -123 0
15 -124 0
123 -123 0
124 -124 0
30 -131 0
30 -132 0
131 -131 0
132 -132 0
45 -139 0
45 -140 0
139 -139 0
140 -140 0
60 -147 0
60 -148 0
147 -147 0
148 -148 0
75 -155 0
75 -156 0
155 -155 0
156 -156 0
90 -163 0
90 -164 0
163 -163 0
164 -164 0
105 -171 0
105 -172 0
171 -171 0
172 -172 0
120 -179 0
120 -180 0
179 -179 0
180 -180 0
-247 123 0
247 -123 0
-248 124 0
247 -124 0
-247 -123 0
-248 -124 0
-255 123 247 0
255 -123 0
255 -247 0
-256 124 248 0
256 -124 0
256 -248 0
-255 -131 0
-256 -132 0
-263 131 255 0
263 -131 0
263 -255 0
-264 132 256 0
264 -132 0
264 -256 0
-263 -139 0
-264 -140 0
-271 139 263 0
271 -139 0
271 -263 0
-272 140 264 0
272 -140 0
272 -264 0
-271 -147 0
-272 -148 0
-279 147 271 0
279 -147 0
279 -271 0
-280 148 272 0
280 -148 0
280 -272 0
-279 -155 0
-280 -156 0
-287 155 279 0
287 -155 0
287 -279 0
-288 156 280 0
288 -156 0
288 -280 0
-287 -163 0
-288 -164 0
-295 163 287 0
295 -163 0
295 -287 0
-296 164 288 0
296 -164 0
296 -288 0
-295 -171 0
-296 -172 0
-303 171 295 0
303 -171 0
303 -295 0
-304 172 296 0
304 -172 0
304 -296 0
-303 -179 0
-304 -180 0
303 0
304 0
1 -125 0
1 -126 0
125 -125 0
126 -126 0
16 -133 0
16 -134 0
133 -133 0
134 -134 0
31 -141 0
31 -142 0
141 -141 0
142 -142 0
46 -149 0
46 -150 0
149 -149 0
150 -150 0
61 -157 0
61 -158 0
157 -157 0
158 -158 0
76 -165 0
76 -166 0
165 -165 0
166 -166 0
91 -173 0
91 -174 0
173 -173 0
174 -174 0
106 -181 0
106 -182 0
181 -181 0
182 -182 0
-2 -125 0
-2 -126 0
125 -125 0
126 -126 0
-17 -133 0
-17 -134 0
133 -133 0
134 -134 0
-32 -141 0
-32 -142 0
141 -141 0
142 -142 0
-47 -149 0
-47 -150 0
149 -149 0
150 -150 0
-62 -157 0
-62 -158 0
157 -157 0
158 -158 0
-77 -165 0
-77 -166 0
165 -165 0
166 -166 0
-92 -173 0
-92 -174 0
173 -173 0
174 -174 0
-107 -181 0
-107 -182 0
181 -181 0
182 -182 0
3 -125 0
3 -126 0
125 -125 0
126 -126 0
18 -133 0
18 -134 0
133 -133 0
134 -134 0
33 -141 0
33 -142 0
141 -141 0
142 -142 0
48 -149 0
48 -150 0
149 -149 0
150 -150 0
63 -157 0
63 -158 0
157 -157 0
158 -158 0
78 -165 0
78 -166 0
165 -165 0
166 -166 0
93 -173 0
93 -174 0
173 -173 0
174 -174 0
108 -181 0
108 -182 0
181 -181 0
182 -182 0
-4 -125 0
-4 -126 0
125 -125 0
126 -126 0
-19 -133 0
-19 -134 0
133 -133 0
134 -134 0
-34 -141 0
-34 -142 0
141 -141 0
142 -142 0
-49 -149 0
-49 -150 0
149 -149 0
150 -150 0
-64 -157 0
-64 -158 0
157 -157 0
158 -158 0
-79 -165 0
-79 -166 0
165 -165 0
166 -166 0
-94 -173 0
-94 -174 0
173 -173 0
174 -174 0
-109 -181 0
-109 -182 0
181 -181 0
182 -182 0
-5 -125 0
-5 -126 0
125 -125 0
126 -126 0
-20 -133 0
-20 -134 0
133 -133 0
134 -134 0
-35 -141 0
-35 -142 0
141 -141 0
142 -142 0
-50 -149 0
-50 -150 0
149 -149 0
150 -150 0
-65 -157 0
-65 -158 0
157 -157 0
158 -158 0
-80 -165 0
-80 -166 0
165 -165 0
166 -166 0
-95 -173 0
-95 -174 0
173 -173 0
174 -174 0
-110 -181 0
-110 -182 0
181 -181 0
182 -182 0
-6 -125 0
-6 -126 0
125 -125 0
126 -126 0
-21 -133 0
-21 -134 0
133 -133 0
134 -134 0
-36 -141 0
-36 -142 0
141 -141 0
142 -142 0
-51 -149 0
-51 -150 0
149 -149 0
150 -150 0
-66 -157 0
-66 -158 0
157 -157 0
158 -158 0
-81 -165 0
-81 -166 0
165 -165 0
166 -166 0
-96 -173 0
-96 -174 0
173 -173 0
174 -174 0
-111 -181 0
-111 -182 0
181 -181 0
182 -182 0
7 -190 -125 0
-7 190 -125 0
7 190 -126 0
-7 -190 -126 0
22 -190 -133 0
-22 190 -133 0
22 190 -134 0
-22 -190 -134 0
37 -190 -141 0
-37 190 -141 0
37 190 -142 0
-37 -190 -142 0
52 -190 -149 0
-52 190 -149 0
52 190 -150 0
-52 -190 -150 0
67 -190 -157 0
-67 190 -157 0
67 190 -158 0
-67 -190 -158 0
82 -190 -165 0
-82 190 -165 0
82 190 -166 0
-82 -190 -166 0
97 -190 -173 0
-97 190 -173 0
97 190 -174 0
-97 -190 -174 0
112 -190 -181 0
-112 190 -181 0
112 190 -182 0
-112 -190 -182 0
8 -191 -125 0
-8 191 -125 0
8 191 -126 0
-8 -191 -126 0
23 -191 -133 0
-23 191 -133 0
23 191 -134 0
-23 -191 -134 0
38 -191 -141 0
-38 191 -141 0
38 191 -142 0
-38 -191 -142 0
53 -191 -149 0
-53 191 -149 0
53 191 -150 0
-53 -191 -150 0
68 -191 -157 0
-68 191 -157 0
68 191 -158 0
-68 -191 -158 0
83 -191 -165 0
-83 191 -165 0
83 191 -166 0
-83 -191 -166 0
98 -191 -173 0
-98 191 -173 0
98 191 -174 0
-98 -191 -174 0
113 -191 -181 0
-113 191 -181 0
113 191 -182 0
-113 -191 -182 0
9 -192 -125 0
-9 192 -125 0
9 192 -126 0
-9 -192 -126 0
24 -192 -133 0
-24 192 -133 0
24 192 -134 0
-24 -192 -134 0
39 -192 -141 0
-39 192 -141 0
39 192 -142 0
-39 -192 -142 0
54 -192 -149 0
-54 192 -149 0
54 192 -150 0
-54 -192 -150 0
69 -192 -157 0
-69 192 -157 0
69 192 -158 0
-69 -192 -158 0
84 -192 -165 0
-84 192 -165 0
84 192 -166 0
-84 -192 -166 0
99 -192 -173 0
-99 192 -173 0
99 192 -174 0
-99 -192 -174 0
114 -192 -181 0
-114 192 -181 0
114 192 -182 0
-114 -192 -182 0
10 -193 -125 0
-10 193 -125 0
10 193 -126 0
-10 -193 -126 0
25 -193 -133 0
-25 193 -133 0
25 193 -134 0
-25 -193 -134 0
40 -193 -141 0
-40 193 -141 0
40 193 -142 0
-40 -193 -142 0
55 -193 -149 0
-55 193 -149 0
55 193 -150 0
-55 -193 -150 0
70 -193 -157 0
-70 193 -157 0
70 193 -158 0
-70 -193 -158 0
85 -193 -165 0
-85 193 -165 0
85 193 -166 0
-85 -193 -166 0
100 -193 -173 0
-100 193 -173 0
100 193 -174 0
-100 -193 -174 0
115 -193 -181 0
-115 193 -181 0
115 193 -182 0
-115 -193 -182 0
11 -125 0
11 -126 0
125 -125 0
126 -126 0
26 -133 0
26 -134 0
133 -133 0
134 -134 0
41 -141 0
41 -142 0
141 -141 0
142 -142 0
56 -149 0
56 -150 0
149 -149 0
150 -150 0
71 -157 0
71 -158 0
157 -157 0
158 -158 0
86 -165 0
86 -166 0
165 -165 0
166 -166 0
101 -173 0
101 -174 0
173 -173 0
174 -174 0
116 -181 0
116 -182 0
181 -181 0
182 -182 0
12 -125 0
12 -126 0
125 -125 0
126 -126 0
27 -133 0
27 -134 0
133 -133 0
134 -134 0
42 -141 0
42 -142 0
141 -141 0
142 -142 0
57 -149 0
57 -150 0
149 -149 0
150 -150 0
72 -157 0
72 -158 0
157 -157 0
158 -158 0
87 -165 0
87 -166 0
165 -165 0
166 -166 0
102 -173 0
102 -174 0
173 -173 0
174 -174 0
117 -181 0
117 -182 0
181 -181 0
182 -182 0
13 -125 0
13 -126 0
125 -125 0
126 -126 0
28 -133 0
28 -134 0
133 -133 0
134 -134 0
43 -141 0
43 -142 0
141 -141 0
142 -142 0
58 -149 0
58 -150 0
149 -149 0
150 -150 0
73 -157 0
73 -158 0
157 -157 0
158 -158 0
88 -165 0
88 -166 0
165 -165 0
166 -166 0
103 -173 0
103 -174 0
173 -173 0
174 -174 0
118 -181 0
118 -182 0
181 -181 0
182 -182 0
14 -194 -125 0
-14 194 -125 0
14 194 -126 0
-14 -194 -126 0
29 -194 -133 0
-29 194 -133 0
29 194 -134 0
-29 -194 -134 0
44 -194 -141 0
-44 194 -141 0
44 194 -142 0
-44 -194 -142 0
59 -194 -149 0
-59 194 -149 0
59 194 -150 0
-59 -194 -150 0
74 -194 -157 0
-74 194 -157 0
74 194 -158 0
-74 -194 -158 0
89 -194 -165 0
-89 194 -165 0
89 194 -166 0
-89 -194 -166 0
104 -194 -173 0
-104 194 -173 0
104 194 -174 0
-104 -194 -174 0
119 -194 -181 0
-119 194 -181 0
119 194 -182 0
-119 -194 -182 0
15 -125 0
15 -126 0
125 -125 0
126 -126 0
30 -133 0
30 -134 0
133 -133 0
134 -134 0
45 -141 0
45 -142 0
141 -141 0
142 -142 0
60 -149 0
60 -150 0
149 -149 0
150 -150 0
75 -157 0
75 -158 0
157 -157 0
158 -158 0
90 -165 0
90 -166 0
165 -165 0
166 -166 0
105 -173 0
105 -174 0
173 -173 0
174 -174 0
120 -181 0
120 -182 0
181 -181 0
182 -182 0
-249 125 0
249 -125 0
-250 126 0
249 -126 0
-249 -125 0
-250 -126 0
-257 125 249 0
257 -125 0
257 -249 0
-258 126 250 0
258 -126 0
258 -250 0
-257 -133 0
-258 -134 0
-265 133 257 0
265 -133 0
265 -257 0
-266 134 258 0
266 -134 0
266 -258 0
-265 -141 0
-266 -142 0
-273 141 265 0
273 -141 0
273 -265 0
-274 142 266 0
274 -142 0
274 -266 0
-273 -149 0
-274 -150 0
-281 149 273 0
281 -149 0
281 -273 0
-282 150 274 0
282 -150 0
282 -274 0
-281 -157 0
-282 -158 0
-289 157 281 0
289 -157 0
289 -281 0
-290 158 282 0
290 -158 0
290 -282 0
-289 -165 0
-290 -166 0
-297 165 289 0
297 -165 0
297 -289 0
-298 166 290 0
298 -166 0
298 -290 0
-297 -173 0
-298 -174 0
-305 173 297 0
305 -173 0
305 -297 0
-306 174 298 0
306 -174 0
306 -298 0
-305 -181 0
-306 -182 0
305 0
306 0
1 -127 0
1 -128 0
127 -127 0
128 -128 0
16 -135 0
16 -136 0
135 -135 0
136 -136 0
31 -143 0
31 -144 0
143 -143 0
144 -144 0
46 -151 0
46 -152 0
151 -151 0
152 -152 0
61 -159 0
61 -160 0
159 -159 0
160 -160 0
76 -167 0
76 -168 0
167 -167 0
168 -168 0
91 -175 0
91 -176 0
175 -175 0
176 -176 0
106 -183 0
106 -184 0
183 -183 0
184 -184 0
-2 -127 0
-2 -128 0
127 -127 0
128 -128 0
-17 -135 0
-17 -136 0
135 -135 0
136 -136 0
-32 -143 0
-32 -144 0
143 -143 0
144 -144 0
-47 -151 0
-47 -152 0
151 -151 0
152 -152 0
-62 -159 0
-62 -160 0
159 -159 0
160 -160 0
-77 -167 0
-77 -168 0
167 -167 0
168 -168 0
-92 -175 0
-92 -176 0
175 -175 0
176 -176 0
-107 -183 0
-107 -184 0
183 -183 0
184 -184 0
3 -127 0
3 -128 0
127 -127 0
128 -128 0
18 -135 0
18 -136 0
135 -135 0
136 -136 0
33 -143 0
33 -144 0
143 -143 0
144 -144 0
48 -151 0
48 -152 0
151 -151 0
152 -152 0
63 -159 0
63 -160 0
159 -159 0
160 -160 0
78 -167 0
78 -168 0
167 -167 0
168 -168 0
93 -175 0
93 -176 0
175 -175 0
176 -176 0
108 -183 0
108 -184 0
183 -183 0
184 -184 0
-4 -127 0
-4 -128 0
127 -127 0
128 -128 0
-19 -135 0
-19 -136 0
135 -135 0
136 -136 0
-34 -143 0
-34 -144 0
143 -143 0
144 -144 0
-49 -151 0
-49 -152 0
151 -151 0
152 -152 0
-64 -159 0
-64 -160 0
159 -159 0
160 -160 0
-79 -167 0
-79 -168 0
167 -167 0
168 -168 0
-94 -175 0
-94 -176 0
175 -175 0
176 -176 0
-109 -183 0
-109 -184 0
183 -183 0
184 -184 0
-5 -127 0
-5 -128 0
127 -127 0
128 -128 0
-20 -135 0
-20 -136 0
135 -135 0
136 -136 0
-35 -143 0
-35 -144 0
143 -143 0
144 -144 0
-50 -151 0
-50 -152 0
151 -151 0
152 -152 0
-65 -159 0
-65 -160 0
159 -159 0
160 -160 0
-80 -167 0
-80 -168 0
167 -167 0
168 -168 0
-95 -175 0
-95 -176 0
175 -175 0
176 -176 0
-110 -183 0
-110 -184 0
183 -183 0
184 -184 0
6 -195 -127 0
-6 195 -127 0
6 195 -128 0
-6 -195 -128 0
21 -195 -135 0
-21 195 -135 0
21 195 -136 0
-21 -195 -136 0
36 -195 -143 0
-36 195 -143 0
36 195 -144 0
-36 -195 -144 0
51 -195 -151 0
-51 195 -151 0
51 195 -152 0
-51 -195 -152 0
66 -195 -159 0
-66 195 -159 0
66 195 -160 0
-66 -195 -160 0
81 -195 -167 0
-81 195 -167 0
81 195 -168 0
-81 -195 -168 0
96 -195 -175 0
-96 195 -175 0
96 195 -176 0
-96 -195 -176 0
111 -195 -183 0
-111 195 -183 0
111 195 -184 0
-111 -195 -184 0
7 -196 -127 0
-7 196 -127 0
7 196 -128 0
-7 -196 -128 0
22 -196 -135 0
-22 196 -135 0
22 196 -136 0
-22 -196 -136 0
37 -196 -143 0
-37 196 -143 0
37 196 -144 0
-37 -196 -144 0
52 -196 -151 0
-52 196 -151 0
52 196 -152 0
-52 -196 -152 0
67 -196 -159 0
-67 196 -159 0
67 196 -160 0
-67 -196 -160 0
82 -196 -167 0
-82 196 -167 0
82 196 -168 0
-82 -196 -168 0
97 -196 -175 0
-97 196 -175 0
97 196 -176 0
-97 -196 -176 0
112 -196 -183 0
-112 196 -183 0
112 196 -184 0
-112 -196 -184 0
8 -197 -127 0
-8 197 -127 0
8 197 -128 0
-8 -197 -128 0
23 -197 -135 0
-23 197 -135 0
23 197 -136 0
-23 -197 -136 0
38 -197 -143 0
-38 197 -143 0
38 197 -144 0
-38 -197 -144 0
53 -197 -151 0
-53 197 -151 0
53 197 -152 0
-53 -197 -152 0
68 -197 -159 0
-68 197 -159 0
68 197 -160 0
-68 -197 -160 0
83 -197 -167 0
-83 197 -167 0
83 197 -168 0
-83 -197 -168 0
98 -197 -175 0
-98 197 -175 0
98 197 -176 0
-98 -197 -176 0
113 -197 -183 0
-113 197 -183 0
113 197 -184 0
-113 -197 -184 0
9 -127 0
9 -128 0
127 -127 0
128 -128 0
24 -135 0
24 -136 0
135 -135 0
136 -136 0
39 -143 0
39 -144 0
143 -143 0
144 -144 0
54 -151 0
54 -152 0
151 -151 0
152 -152 0
69 -159 0
69 -160 0
159 -159 0
160 -160 0
84 -167 0
84 -168 0
167 -167 0
168 -168 0
99 -175 0
99 -176 0
175 -175 0
176 -176 0
114 -183 0
114 -184 0
183 -183 0
184 -184 0
-10 -127 0
-10 -128 0
127 -127 0
128 -128 0
-25 -135 0
-25 -136 0
135 -135 0
136 -136 0
-40 -143 0
-40 -144 0
143 -143 0
144 -144 0
-55 -151 0
-55 -152 0
151 -151 0
152 -152 0
-70 -159 0
-70 -160 0
159 -159 0
160 -160 0
-85 -167 0
-85 -168 0
167 -167 0
168 -168 0
-100 -175 0
-100 -176 0
175 -175 0
176 -176 0
-115 -183 0
-115 -184 0
183 -183 0
184 -184 0
11 -198 -127 0
-11 198 -127 0
11 198 -128 0
-11 -198 -128 0
26 -198 -135 0
-26 198 -135 0
26 198 -136 0
-26 -198 -136 0
41 -198 -143 0
-41 198 -143 0
41 198 -144 0
-41 -198 -144 0
56 -198 -151 0
-56 198 -151 0
56 198 -152 0
-56 -198 -152 0
71 -198 -159 0
-71 198 -159 0
71 198 -160 0
-71 -198 -160 0
86 -198 -167 0
-86 198 -167 0
86 198 -168 0
-86 -198 -168 0
101 -198 -175 0
-101 198 -175 0
101 198 -176 0
-101 -198 -176 0
116 -198 -183 0
-116 198 -183 0
116 198 -184 0
-116 -198 -184 0
12 -127 0
12 -128 0
127 -127 0
128 -128 0
27 -135 0
27 -136 0
135 -135 0
136 -136 0
42 -143 0
42 -144 0
143 -143 0
144 -144 0
57 -151 0
57 -152 0
151 -151 0
152 -152 0
72 -159 0
72 -160 0
159 -159 0
160 -160 0
87 -167 0
87 -168 0
167 -167 0
168 -168 0
102 -175 0
102 -176 0
175 -175 0
176 -176 0
117 -183 0
117 -184 0
183 -183 0
184 -184 0
13 -199 -127 0
-13 199 -127 0
13 199 -128 0
-13 -199 -128 0
28 -199 -135 0
-28 199 -135 0
28 199 -136 0
-28 -199 -136 0
43 -199 -143 0
-43 199 -143 0
43 199 -144 0
-43 -199 -144 0
58 -199 -151 0
-58 199 -151 0
58 199 -152 0
-58 -199 -152 0
73 -199 -159 0
-73 199 -159 0
73 199 -160 0
-73 -199 -160 0
88 -199 -167 0
-88 199 -167 0
88 199 -168 0
-88 -199 -168 0
103 -199 -175 0
-103 199 -175 0
103 199 -176 0
-103 -199 -176 0
118 -199 -183 0
-118 199 -183 0
118 199 -184 0
-118 -199 -184 0
14 -200 -127 0
-14 200 -127 0
14 200 -128 0
-14 -200 -128 0
29 -200 -135 0
-29 200 -135 0
29 200 -136 0
-29 -200 -136 0
44 -200 -143 0
-44 200 -143 0
44 200 -144 0
-44 -200 -144 0
59 -200 -151 0
-59 200 -151 0
59 200 -152 0
-59 -200 -152 0
74 -200 -159 0
-74 200 -159 0
74 200 -160 0
-74 -200 -160 0
89 -200 -167 0
-89 200 -167 0
89 200 -168 0
-89 -200 -168 0
104 -200 -175 0
-104 200 -175 0
104 200 -176 0
-104 -200 -176 0
119 -200 -183 0
-119 200 -183 0
119 200 -184 0
-119 -200 -184 0
15 -127 0
15 -128 0
127 -127 0
128 -128 0
30 -135 0
30 -136 0
135 -135 0
136 -136 0
45 -143 0
45 -144 0
143 -143 0
144 -144 0
60 -151 0
60 -152 0
151 -151 0
152 -152 0
75 -159 0
75 -160 0
159 -159 0
160 -160 0
90 -167 0
90 -168 0
167 -167 0
168 -168 0
105 -175 0
105 -176 0
175 -175 0
176 -176 0
120 -183 0
120 -184 0
183 -183 0
184 -184 0
-251 127 0
251 -127 0
-252 128 0
251 -128 0
-251 -127 0
-252 -128 0
-259 127 251 0
259 -127 0
259 -251 0
-260 128 252 0
260 -128 0
260 -252 0
-259 -135 0
-260 -136 0
-267 135 259 0
267 -135 0
267 -259 0
-268 136 260 0
268 -136 0
268 -260 0
-267 -143 0
-268 -144 0
-275 143 267 0
275 -143 0
275 -267 0
-276 144 268 0
276 -144 0
276 -268 0
-275 -151 0
-276 -152 0
-283 151 275 0
283 -151 0
283 -275 0
-284 152 276 0
284 -152 0
284 -276 0
-283 -159 0
-284 -160 0
-291 159 283 0
291 -159 0
291 -283 0
-292 160 284 0
292 -160 0
292 -284 0
-291 -167 0
-292 -168 0
-299 167 291 0
299 -167 0
299 -291 0
-300 168 292 0
300 -168 0
300 -292 0
-299 -175 0
-300 -176 0
-307 175 299 0
307 -175 0
307 -299 0
-308 176 300 0
308 -176 0
308 -300 0
-307 -183 0
-308 -184 0
307 0
308 0
